c User generated cnf file
p cnf 12 19
5 9 -3 0 
9 -12 8 0 
3 4 -9 0 
5 12 -3 0 
6 7 -4 0 
8 11 -5 0 
1 9 -4 0 
11 -3 2 0 
11 -10 5 0 
-9 3 1 0 
-11 4 10 0 
4 2 -4 0 
2 12 -6 0 
-1 3 9 0 
-1 11 9 0 
6 -7 11 0 
6 8 -9 0 
-1 8 7 0 
12 -4 6 0 
